10
1 0 38
2 0 18
2 1 35
3 0 40
3 1 40
3 2 9
4 0 5
4 1 16
4 2 14
4 3 13
5 0 9
5 1 39
5 2 40
5 3 21
5 4 16
6 0 11
6 1 27
6 2 18
6 3 10
6 4 1
6 5 22
7 0 11
7 1 17
7 2 31
7 3 27
7 4 21
7 5 39
7 6 23
8 0 9
8 1 4
8 2 23
8 3 39
8 4 24
8 5 33
8 6 36
8 7 40
9 0 12
9 1 14
9 2 11
9 3 28
9 4 8
9 5 38
9 6 34
9 7 12
9 8 6
